Optimal - objective value 17.00000000
      0 C0000000               1                       1
      1 C0000001               1                      -0
      2 C0000002               1                       1
      3 C0000003               0                      -0
      4 C0000004               0                      -0
      5 C0000005               1                       1
      6 C0000006               1                       1
      7 C0000007               0                      -0
      8 C0000008               1                       1
      9 C0000009               1                       1
     10 C0000010               1                       1
     11 C0000011               1                       1
     12 C0000012               1                       1
     13 C0000013               1                       1
     14 C0000014               1                       1
     15 C0000015               1                       1
     16 C0000016               1                       1
     17 C0000017               1                       1
     18 C0000018               1                       1
     19 C0000019               1                       1
     20 C0000020               1                      -0
     21 C0000021               1                      -0
     22 C0000022               1                      -0
     23 C0000023               1                      -0
     24 C0000024               1                      -0
     25 C0000025               1                      -0
     26 C0000026               1                      -0
     27 C0000027               1                      -0
     28 C0000028               1                      -0
     29 C0000029               1                      -0
     30 C0000030               1                      -0
     31 C0000031               1                      -0
     32 C0000032               1                      -0
     33 C0000033               1                      -0
     34 C0000034               1                      -0
     35 C0000035               1                      -0
     36 C0000036               1                      -0
     37 C0000037               1                      -0
     38 C0000038               1                      -0
     39 C0000039               1                      -0
     40 C0000040               1                      -0
     41 C0000041               1                      -0
     42 C0000042               1                      -0
     43 C0000043               1                      -0
     44 C0000044               1                      -0
     45 C0000045               1                      -0
     46 C0000046               1                      -0
     47 C0000047               1                      -0
     48 C0000048               1                      -0
     49 C0000049               1                      -0
     50 C0000050               1                      -0
     51 C0000051               1                      -0
     52 C0000052               1                      -0
     53 C0000053               1                      -0
     54 C0000054               1                      -0
     55 C0000055               1                      -0
     56 C0000056               1                      -0
     57 C0000057               1                      -0
     58 C0000058               1                      -0
     59 C0000059               1                      -0
     60 C0000060               1                      -0
     61 C0000061               1                      -0
     62 C0000062               1                      -0
     63 C0000063               1                      -0
     64 C0000064               1                      -0
     65 C0000065               1                      -0
     66 C0000066               1                      -0
     67 C0000067               1                      -0
     68 C0000068               1                      -0
     69 C0000069               1                      -0
     70 C0000070               1                      -0
     71 C0000071               1                      -0
     72 C0000072               1                      -0
     73 C0000073               1                      -0
     74 C0000074               1                      -0
     75 C0000075               1                      -0
     76 C0000076               1                      -0
     77 C0000077               1                      -0
     78 C0000078               1                      -0
     79 C0000079               1                      -0
     80 C0000080               1                      -0
     81 C0000081               1                      -0
     82 C0000082               1                      -0
     83 C0000083               1                      -0
     84 C0000084               1                      -0
     85 C0000085               1                      -0
     86 C0000086               1                      -0
     87 C0000087               1                      -0
     88 C0000088               1                      -0
     89 C0000089               1                      -0
     90 C0000090               1                      -0
     91 C0000091               1                      -0
     92 C0000092               1                      -0
     93 C0000093               1                      -0
     94 C0000094               1                      -0
     95 C0000095               1                      -0
     96 C0000096               1                      -0
     97 C0000097               1                      -0
     98 C0000098               1                      -0
     99 C0000099               1                      -0
    100 C0000100               1                      -0
    101 C0000101               1                      -0
    102 C0000102               1                      -0
    103 C0000103               1                      -0
    104 C0000104               1                      -0
    105 C0000105               1                      -0
    106 C0000106               1                      -0
    107 C0000107               1                      -0
    108 C0000108               1                      -0
    109 C0000109               1                      -0
    110 C0000110               1                      -0
    111 C0000111               1                      -0
    112 C0000112               1                      -0
    113 C0000113               1                      -0
    114 C0000114               1                      -0
    115 C0000115               1                      -0
    116 C0000116               1                      -0
    117 C0000117               1                      -0
    118 C0000118               1                      -0
    119 C0000119               1                      -0
    120 C0000120               1                      -0
    121 C0000121               1                      -0
    122 C0000122               1                      -0
    123 C0000123               1                      -0
    124 C0000124               1                      -0
    125 C0000125               1                      -0
    126 C0000126               1                      -0
    127 C0000127               1                      -0
    128 C0000128               1                      -0
    129 C0000129               1                      -0
    130 C0000130               1                      -0
    131 C0000131               1                      -0
    132 C0000132               1                      -0
    133 C0000133               1                      -0
    134 C0000134               1                      -0
    135 C0000135               1                      -0
    136 C0000136               1                      -0
    137 C0000137               1                      -0
    138 C0000138               1                      -0
    139 C0000139               1                      -0
    140 C0000140               1                      -0
    141 C0000141               1                      -0
    142 C0000142               1                      -0
    143 C0000143               1                      -0
    144 C0000144               1                      -0
    145 C0000145               1                      -0
    146 C0000146               1                      -0
    147 C0000147               1                      -0
    148 C0000148               1                      -0
    149 C0000149               1                      -0
    150 C0000150               1                      -0
    151 C0000151               1                      -0
    152 C0000152               1                      -0
    153 C0000153               1                      -0
    154 C0000154               1                      -0
    155 C0000155               1                      -0
    156 C0000156               1                      -0
    157 C0000157               1                      -0
    158 C0000158               1                      -0
    159 C0000159               1                      -0
    160 C0000160               1                      -0
    161 C0000161               1                      -0
    162 C0000162               1                      -0
    163 C0000163               1                      -0
    164 C0000164               1                      -0
    165 C0000165               1                      -0
    166 C0000166               1                      -0
    167 C0000167               1                      -0
    168 C0000168               1                      -0
    169 C0000169               1                      -0
    170 C0000170               1                      -0
    171 C0000171               1                      -0
    172 C0000172               1                      -0
    173 C0000173               1                      -0
    174 C0000174               1                      -0
    175 C0000175               1                      -0
    176 C0000176               1                      -0
    177 C0000177               1                      -0
    178 C0000178               1                      -0
    179 C0000179               1                      -0
    180 C0000180               1                      -0
    181 C0000181               1                      -0
    182 C0000182               1                      -0
    183 C0000183               1                      -0
    184 C0000184               1                      -0
    185 C0000185               1                      -0
    186 C0000186               1                      -0
    187 C0000187               1                      -0
    188 C0000188               1                      -0
    189 C0000189               1                      -0
    190 C0000190               1                      -0
    191 C0000191               1                      -0
    192 C0000192               1                      -0
    193 C0000193               1                      -0
    194 C0000194               1                      -0
    195 C0000195               1                      -0
    196 C0000196               1                       1
    197 C0000197               1                      -0
    198 C0000198               1                      -0
      0 X0000000               1                       0
      1 X0000001               1                       0
      2 X0000002               1                       0
      3 X0000003               1                       0
      4 X0000004               1                       0
      5 X0000005               1                       0
      6 X0000006               1                       0
      7 X0000007               1                       0
      8 X0000008               1                       0
      9 X0000009               1                       0
     10 X0000010               1                       0
     11 X0000011               1                       0
     12 X0000012               1                       0
     13 X0000013               0                       0
     14 X0000014               0                       0
     15 X0000015               1                       0
     16 X0000016               1                       0
     17 X0000017               0                       0
     18 X0000018               1                       0
     19 X0000019               1                       0
